(set-logic BV) (define-fun origCir ((i26 Bool) (i25 Bool) (i24 Bool) (i27 Bool)) Bool (and (and (and (not i25) (not i24)) (not i26)) (not i27))) (synth-fun skel ((i26 Bool) (i25 Bool) (i24 Bool) (i27 Bool)) Bool) (declare-var i26 Bool) (declare-var i25 Bool) (declare-var i24 Bool) (declare-var i27 Bool) (constraint (= (origCir i26 i25 i24 i27) (skel i26 i25 i24 i27))) (check-synth)
